5,2	0,0	5,6	9,8	0,0	0,0	0,0	0,0	0,0	7,4
13,2	8,7	0,0	10,6	10,4	0,0	0,0	14,3	0,0	0,0
0,0	0,0	19,0	0,0	17,9	10,2	0,0	0,0	10,6	0,0
13,8	0,0	19,5	0,0	0,0	0,0	15,5	0,0	0,0	0,0
0,0	13,9	0,0	9,6	15,9	0,0	0,0	16,6	0,0	0,0
0,0	16,7	8,1	0,0	16,5	8,0	0,0	0,0	10,3	0,0
0,0	18,6	0,0	17,4	0,0	0,0	19,5	0,0	0,0	11,8
6,6	0,0	5,4	0,0	0,0	0,0	0,0	0,0	0,0	5,2
0,0	13,9	0,0	10,4	9,9	0,0	0,0	16,4	0,0	0,0
0,0	0,0	8,9	0,0	0,0	15,1	19,5	0,0	0,0	17,7
0,0	13,1	0,0	0,0	5,8	0,0	8,0	0,0	10,5	7,5
6,6	0,0	7,7	0,0	14,2	0,0	6,0	17,4	9,5	0,0
0,0	7,3	0,0	0,0	0,0	6,5	0,0	13,1	11,6	12,4
18,8	11,6	7,0	0,0	0,0	19,1	0,0	6,4	6,7	0,0
12,9	0,0	13,2	0,0	6,1	10,7	15,2	16,6	0,0	0,0
0,0	19,5	0,0	5,2	0,0	18,0	0,0	18,1	0,0	0,0
12,6	0,0	14,0	19,7	19,4	0,0	0,0	12,0	0,0	0,0
0,0	0,0	12,3	0,0	0,0	15,4	10,9	0,0	17,5	14,4
15,5	0,0	0,0	17,3	16,3	15,8	14,1	10,0	0,0	5,3
0,0	8,0	0,0	12,8	0,0	0,0	7,7	0,0	5,8	16,9
									
4,3	4,7	3,6	4,5	3,2	3,6	4,8	2,6	4,8	4,3
